(set-info :smt-lib-version 2.6)
(set-logic QF_UFLRA)
(set-info :source |
MathSat group

|)
(set-info :category "random")
(set-info :status unsat)
(declare-fun x0 () Real)
(declare-fun x1 () Real)
(declare-fun x2 () Real)
(declare-fun x3 () Real)
(declare-fun x4 () Real)
(declare-fun x5 () Real)
(declare-fun x6 () Real)
(declare-fun x7 () Real)
(declare-fun x8 () Real)
(declare-fun x9 () Real)
(declare-fun x10 () Real)
(declare-fun x11 () Real)
(declare-fun x12 () Real)
(declare-fun x13 () Real)
(declare-fun x14 () Real)
(declare-fun x15 () Real)
(declare-fun x16 () Real)
(declare-fun x17 () Real)
(declare-fun x18 () Real)
(declare-fun x19 () Real)
(declare-fun x20 () Real)
(declare-fun x21 () Real)
(declare-fun x22 () Real)
(declare-fun x23 () Real)
(declare-fun x24 () Real)
(declare-fun x25 () Real)
(declare-fun x26 () Real)
(declare-fun x27 () Real)
(declare-fun x28 () Real)
(declare-fun x29 () Real)
(declare-fun f0_1 (Real) Real)
(declare-fun f0_2 (Real Real) Real)
(declare-fun f0_3 (Real Real Real) Real)
(declare-fun f0_4 (Real Real Real Real) Real)
(declare-fun P0 () Bool)
(declare-fun P1 () Bool)
(declare-fun P2 () Bool)
(declare-fun P3 () Bool)
(declare-fun P4 () Bool)
(declare-fun P5 () Bool)
(declare-fun P6 () Bool)
(declare-fun P7 () Bool)
(declare-fun P8 () Bool)
(declare-fun P9 () Bool)
(declare-fun P10 () Bool)
(declare-fun P11 () Bool)
(declare-fun P12 () Bool)
(declare-fun P13 () Bool)
(declare-fun P14 () Bool)
(declare-fun P15 () Bool)
(declare-fun P16 () Bool)
(declare-fun P17 () Bool)
(declare-fun P18 () Bool)
(declare-fun P19 () Bool)
(declare-fun P20 () Bool)
(declare-fun P21 () Bool)
(declare-fun P22 () Bool)
(declare-fun P23 () Bool)
(declare-fun P24 () Bool)
(declare-fun P25 () Bool)
(declare-fun P26 () Bool)
(declare-fun P27 () Bool)
(declare-fun P28 () Bool)
(declare-fun P29 () Bool)
(assert (let ((?v_67 (< (- (- (* 42 x11) (* 21 x19)) (* 3 x19)) 39)) (?v_37 (* 2 x3)) (?v_14 (<= (+ (- (* 18 x4) (* 26 x26)) (* 27 x5)) 15)) (?v_103 (<= (- (+ (* 34 x18) (* 7 x17)) (* 26 x13)) 28)) (?v_22 (* 7 x23))) (let ((?v_30 (<= (- (+ ?v_22 ?v_22) (* 41 x6)) 35)) (?v_72 (<= (- (+ (* 32 x25) (* 18 x10)) (* 24 x27)) 41)) (?v_24 (<= (+ (- (* 13 x12) (* 39 x26)) (* 17 x10)) 42)) (?v_130 (= (f0_1 x19) (f0_2 x8 x23))) (?v_111 (distinct (f0_2 x5 x4) (f0_2 x6 x26))) (?v_18 (f0_1 x14))) (let ((?v_40 (= (f0_2 x12 x17) ?v_18)) (?v_105 (f0_1 x26))) (let ((?v_11 (distinct (f0_2 x26 x17) ?v_105)) (?v_38 (= x12 (f0_2 x15 x21))) (?v_44 (= x11 (f0_1 x29))) (?v_115 (f0_2 x18 x22))) (let ((?v_134 (= (f0_1 x4) ?v_115)) (?v_48 (distinct (f0_1 x21) (f0_1 x20))) (?v_36 (= (f0_2 x18 x1) (f0_2 x10 x3))) (?v_33 (= (f0_1 x18) x18)) (?v_10 (f0_1 x10))) (let ((?v_23 (distinct ?v_10 (f0_1 x15))) (?v_28 (distinct (f0_2 x9 x24) x7)) (?v_2 (= (f0_2 x0 x6) (f0_2 x29 x4))) (?v_100 (= x25 x29)) (?v_79 (= x28 x1)) (?v_46 (= (f0_2 x25 x16) (f0_2 x21 x20))) (?v_34 (= x6 (f0_1 x22))) (?v_69 (distinct (f0_2 x25 x10) ?v_18)) (?v_125 (distinct (f0_2 x17 x17) ?v_10)) (?v_27 (= (f0_1 x8) x6)) (?v_3 (= x11 (f0_1 x0))) (?v_84 (distinct (f0_2 x21 x3) x5)) (?v_54 (= x2 ?v_115)) (?v_6 (distinct (f0_2 x14 x16) (f0_1 x11))) (?v_107 (= x28 ?v_105)) (?v_65 (= (f0_2 x7 x2) (f0_1 x16))) (?v_98 (distinct (f0_1 x3) (f0_2 x10 x21))) (?v_26 (= x17 (f0_2 x24 x19))) (?v_0 (= (f0_2 x20 x22) x0)) (?v_17 (distinct (f0_2 x29 x13) (f0_1 x13))) (?v_5 (not P15)) (?v_1 (not P11)) (?v_99 (not P10)) (?v_147 (not P9)) (?v_94 (not ?v_67))) (let ((?v_127 (not ?v_84)) (?v_8 (not P20)) (?v_25 (not ?v_0)) (?v_52 (not ?v_2)) (?v_75 (not P13)) (?v_20 (not ?v_48)) (?v_60 (not ?v_40)) (?v_122 (not P12)) (?v_68 (not P29)) (?v_57 (not ?v_125)) (?v_78 (not P19)) (?v_35 (not P16)) (?v_13 (not ?v_14)) (?v_21 (not ?v_3)) (?v_61 (not ?v_11)) (?v_29 (not ?v_46)) (?v_63 (not P8)) (?v_32 (not ?v_26)) (?v_58 (not ?v_33)) (?v_31 (not P23)) (?v_113 (not ?v_28)) (?v_132 (not ?v_44)) (?v_39 (not ?v_30)) (?v_53 (not ?v_24)) (?v_62 (not P28)) (?v_116 (not ?v_38)) (?v_55 (not P18)) (?v_71 (not P3)) (?v_90 (not ?v_65)) (?v_77 (not ?v_17)) (?v_123 (not P17)) (?v_101 (not ?v_72)) (?v_87 (not ?v_27)) (?v_73 (not ?v_6)) (?v_81 (not P26)) (?v_135 (not ?v_54))) (let ((?v_126 (or ?v_30 ?v_135)) (?v_106 (not ?v_130)) (?v_86 (not P14)) (?v_121 (not ?v_36)) (?v_96 (not P24)) (?v_131 (not ?v_34)) (?v_151 (not P27)) (?v_153 (not ?v_98)) (?v_124 (not P5)) (?v_141 (not ?v_69)) (?v_117 (not P1)) (?v_136 (not P0)) (?v_114 (not ?v_107)) (?v_120 (not P2)) (?v_119 (not ?v_111)) (?v_143 (not P7)) (?v_139 (not ?v_23)) (?v_144 (not P21)) (?v_129 (not P4)) (?v_138 (not ?v_100)) (?v_146 (not P6)) (?v_149 (not ?v_134)) (?v_152 (not ?v_79)) (?v_156 (not ?v_103)) (?v_74 (<= (+ (* 27 x22) (* 32 x17) (* 2 x24)) 10))) (let ((?v_102 (not ?v_74)) (?v_12 (= (+ (* 29 x18) (* 22 x20) (* 3 x9)) 37))) (let ((?v_64 (not ?v_12)) (?v_41 (< (+ (* 27 x28) (* 28 x19)) 0)) (?v_50 (<= (+ ?v_37 (* 21 x21) (* 39 x15)) 20))) (let ((?v_70 (not ?v_50)) (?v_140 (not ?v_41)) (?v_42 (<= (+ (- (* (- 7) x11) (* 3 x26)) (* 2 x26)) 8)) (?v_110 (= (+ (* 8 x26) (* 28 x13) (* 22 x7)) (- 20)))) (let ((?v_7 (not ?v_110)) (?v_4 (< (- (+ (* 31 x17) (* 39 x3)) (* 12 x22)) (- 5)))) (let ((?v_93 (not ?v_4))) (let ((?v_148 (or ?v_93 ?v_24)) (?v_15 (< (+ (- (* (- 28) x6) (* 36 x7)) (* 27 x11)) (- 33))) (?v_47 (< (+ (- (* (- 12) x9) (* 42 x18)) (* 19 x21)) 2))) (let ((?v_89 (not ?v_47)) (?v_9 (<= (- (- (* (- 17) x0) (* 14 x27)) (* 36 x5)) 31))) (let ((?v_82 (not ?v_9)) (?v_97 (< (- (+ (* (- 22) x11) (* 41 x25)) (* 24 x20)) (- 36))) (?v_157 (or ?v_9 P5)) (?v_16 (<= (- (+ (* (- 30) x7) (* 10 x18)) (* 13 x11)) (- 23)))) (let ((?v_19 (not ?v_16)) (?v_92 (< (+ (* (- 34) x11) (* 40 x22)) (- 33))) (?v_95 (= (- (- (* 6 x9) (* 36 x4)) (* 35 x13)) (- 36)))) (let ((?v_142 (not ?v_95)) (?v_45 (= (+ (- (* 30 x27) (* 20 x7)) (* 19 x1)) (- 6))) (?v_83 (< (- (- (* (- 17) x5) (* 16 x17)) 0) (- 38)))) (let ((?v_43 (not ?v_83)) (?v_56 (distinct (- (+ x27 (* 12 x29)) (* 20 x18)) (- 44)))) (let ((?v_118 (not ?v_56)) (?v_51 (<= (- (- ?v_37 (* 11 x1)) (* 17 x7)) (- 14))) (?v_66 (not ?v_45)) (?v_49 (< (+ (* (- 39) x8) (* 38 x16) (* 30 x5)) 20)) (?v_59 (< (+ (- (* (- 11) x19) (* 32 x11)) (* 42 x4)) (- 25))) (?v_109 (< (+ (- (* (- 9) x22) (* 42 x22)) (* 7 x16)) 11))) (let ((?v_80 (not ?v_109)) (?v_128 (not ?v_49)) (?v_88 (distinct (- (- (* (- 24) x20) (* 5 x7)) (* 18 x11)) (- 44))) (?v_108 (not ?v_51)) (?v_76 (< (+ (- (* 22 x22) (* 40 x21)) (* 12 x3)) (- 30))) (?v_85 (not ?v_42)) (?v_145 (not ?v_59)) (?v_91 (< (+ (- (* (- 20) x9) (* 5 x19)) (* 25 x18)) (- 26)))) (let ((?v_112 (or P16 ?v_91)) (?v_104 (not ?v_92)) (?v_137 (not ?v_15)) (?v_133 (not ?v_76)) (?v_150 (not ?v_97)) (?v_155 (not ?v_91)) (?v_154 (or ?v_51 ?v_26))) (and (and (and (and (and (and (and (and (and (and (and (and (and (and (and (and (and (and (and (and (and (and (and (and (and (and (and (and (and (and (and (and (and (and (and (and (and (and (and (and (and (and (and (and (and (and (and (and (and (and (and (and (and (and (and (and (and (and (and (and (and (and (and (and (and (and (and (and (and (and (and (and (and (and (and (and (and (and (and (and (and (and (and (and (and (and (and (and (and (and (and (and (and (and (and (and (and (and (and (and (and (and (and (and (and (and (and (and (and (and (and (and (and (and (and (and (and (and (and (and (and (and (and (and (and (and (and (and (and (and (and (and (and (and (and (and (and (and (and (and (and (and (and (and (and (and (and (and (and (and (and (and (and (and (and (and (and (and (and (and (and (and (and (and (and (and (and (and (and (and (and (and (and (and (and (and (and (and (and (and (and (and (and (and (and (and (and (and (and (and (and (and (and (and (and (and (and (and (and (and (and (and (and (and (and (and (and (and (and (and (and (and (and (and (and (and (and (and (and (and (and (and (and (and (and (and (and (and (and (and (and (and (and (and (and (and (and (and (and (and (and (and (and (and (and (and (and (and (and (and (and (and (and (and (and (and (and (and (and (and (and (and (and (and (and (and (and (and (and (and (and (and (and (and (and (and (and (and (and (and (and (and (and (and (and (and (and (and (and (and (and (and (and (and (and (and (and (and (and (and (and (and (and (and (and (and (and (and (and (and (and (and (and (and (and (and (and (and (and (and (and (and (and (and (and (and (and (and (and (and (and (and (and (and (and (and (and (and (and (and (and (and (and (and (and (and (and (and (and (and (and (and (and (and (and (and (and (and (and (or (or ?v_5 ?v_6) ?v_1) (or (or ?v_3 ?v_0) ?v_99)) (or (or ?v_42 ?v_7) ?v_147)) (or (or ?v_94 P24) ?v_23)) (or ?v_148 ?v_127)) (or (or ?v_8 P14) ?v_17)) (or (or ?v_11 ?v_25) P16)) (or (or ?v_52 ?v_1) ?v_75)) (or (or P27 ?v_2) ?v_20)) (or (or ?v_15 ?v_3) ?v_89)) (or (or ?v_4 ?v_102) ?v_82)) (or (or P7 P8) ?v_5)) (or (or ?v_6 ?v_28) ?v_7)) (or (or ?v_38 ?v_60) ?v_122)) (or (or ?v_8 P21) ?v_34)) (or (or ?v_97 ?v_7) ?v_111)) (or (or P6 ?v_68) ?v_64)) (or ?v_157 ?v_57)) (or (or ?v_78 ?v_35) P5)) (or (or ?v_13 ?v_21) ?v_61)) (or (or ?v_16 ?v_12) ?v_13)) (or (or ?v_14 P19) ?v_29)) (or (or ?v_8 P17) P5)) (or (or ?v_2 ?v_41) ?v_15)) (or (or ?v_19 ?v_63) ?v_5)) (or (or ?v_17 ?v_92) ?v_69)) (or (or ?v_7 ?v_19) P0)) (or (or ?v_20 ?v_21) ?v_30)) (or (or ?v_23 ?v_32) ?v_24)) (or (or ?v_25 ?v_27) ?v_26)) (or (or ?v_58 ?v_31) ?v_36)) (or (or P8 ?v_142) ?v_27)) (or (or ?v_113 ?v_45) ?v_29)) (or (or ?v_132 ?v_43) ?v_19)) (or (or ?v_39 ?v_54) ?v_31)) (or (or ?v_32 ?v_28) ?v_20)) (or (or ?v_33 P21) ?v_53)) (or (or ?v_62 ?v_16) ?v_24)) (or (or ?v_34 ?v_12) ?v_118)) (or (or ?v_35 ?v_28) ?v_5)) (or (or P5 ?v_70) ?v_36)) (or (or ?v_51 ?v_7) ?v_116)) (or (or P20 ?v_55) ?v_26)) (or (or ?v_39 ?v_40) P11)) (or (or ?v_71 ?v_90) ?v_23)) (or (or ?v_140 ?v_42) ?v_11)) (or (or ?v_43 P10) P21)) (or (or ?v_44 ?v_77) ?v_66)) (or (or ?v_46 ?v_49) P23)) (or (or ?v_47 ?v_59) ?v_48)) (or (or ?v_80 ?v_21) ?v_12)) (or (or P22 ?v_49) P1)) (or (or ?v_50 ?v_51) P24)) (or (or P15 ?v_30) ?v_128)) (or (or ?v_52 ?v_29) ?v_53)) (or (or P13 ?v_16) ?v_54)) (or (or ?v_52 ?v_51) ?v_31)) (or (or ?v_55 ?v_88) ?v_56)) (or (or ?v_57 ?v_46) ?v_58)) (or (or ?v_59 ?v_15) P4)) (or (or ?v_14 ?v_39) ?v_60)) (or (or ?v_61 ?v_32) ?v_62)) (or (or ?v_108 ?v_31) ?v_15)) (or (or P4 ?v_123) ?v_101)) (or (or ?v_24 ?v_79) ?v_63)) (or (or ?v_64 ?v_76) ?v_42)) (or (or P21 ?v_87) P17)) (or (or ?v_41 ?v_34) ?v_15)) (or (or ?v_52 ?v_36) ?v_38)) (or (or ?v_29 P16) ?v_15)) (or (or ?v_65 ?v_66) ?v_67)) (or (or ?v_68 ?v_73) ?v_67)) (or (or ?v_69 ?v_53) ?v_70)) (or (or ?v_71 ?v_85) ?v_81)) (or (or ?v_1 ?v_72) ?v_73)) (or (or ?v_74 ?v_75) ?v_76)) (or ?v_126 P23)) (or (or ?v_98 ?v_14) ?v_106)) (or (or P6 ?v_145) P7)) (or (or ?v_86 ?v_77) ?v_50)) (or (or ?v_28 ?v_49) P10)) (or (or ?v_72 ?v_78) ?v_65)) (or (or P1 ?v_79) ?v_70)) (or (or ?v_121 ?v_80) ?v_20)) (or (or ?v_11 P25) ?v_21)) (or (or ?v_103 ?v_81) ?v_79)) (or (or P2 P20) ?v_91)) (or (or ?v_82 ?v_83) P5)) (or (or P24 ?v_84) ?v_19)) (or (or ?v_21 ?v_85) ?v_36)) (or (or ?v_86 P16) ?v_82)) (or (or ?v_66 ?v_39) ?v_87)) (or (or P18 P24) ?v_12)) (or (or (not ?v_88) ?v_89) ?v_90)) (or ?v_112 ?v_104)) (or (or ?v_89 ?v_39) ?v_57)) (or (or ?v_93 ?v_63) ?v_96)) (or (or ?v_13 ?v_94) ?v_95)) (or (or P2 ?v_9) ?v_65)) (or (or ?v_54 P7) ?v_38)) (or (or ?v_24 ?v_96) ?v_97)) (or (or ?v_31 ?v_131) P12)) (or (or ?v_151 ?v_65) ?v_100)) (or (or ?v_21 ?v_96) ?v_153)) (or (or ?v_13 ?v_85) ?v_99)) (or (or P17 ?v_0) ?v_124)) (or (or ?v_49 ?v_141) ?v_70)) (or (or P29 ?v_74) P11)) (or (or P6 ?v_137) ?v_117)) (or (or ?v_36 ?v_7) P8)) (or (or ?v_21 P3) ?v_100)) (or (or ?v_61 ?v_101) ?v_136)) (or (or ?v_44 ?v_28) ?v_53)) (or (or ?v_102 ?v_103) ?v_104)) (or (or ?v_31 ?v_107) ?v_72)) (or (or P18 P1) ?v_31)) (or (or P2 ?v_57) ?v_106)) (or (or ?v_36 ?v_114) ?v_24)) (or (or ?v_82 ?v_92) ?v_89)) (or (or ?v_77 ?v_92) ?v_108)) (or (or P3 ?v_8) P8)) (or (or ?v_109 P24) ?v_0)) (or (or ?v_73 ?v_40) P2)) (or (or ?v_120 P20) ?v_110)) (or (or ?v_51 ?v_11) ?v_111)) (or (or ?v_85 P18) ?v_83)) (or ?v_112 ?v_97)) (or (or ?v_33 P26) P15)) (or (or ?v_110 P26) ?v_71)) (or (or ?v_41 P15) P3)) (or (or P27 ?v_79) P7)) (or (or ?v_2 ?v_42) ?v_59)) (or (or ?v_75 ?v_84) ?v_119)) (or (or ?v_28 ?v_82) ?v_88)) (or (or ?v_113 ?v_114) ?v_2)) (or (or P21 ?v_143) ?v_39)) (or (or ?v_77 ?v_2) ?v_28)) (or (or ?v_2 P20) ?v_134)) (or (or ?v_49 ?v_109) ?v_47)) (or (or ?v_63 P5) ?v_116)) (or (or ?v_4 ?v_40) ?v_117)) (or (or ?v_25 ?v_59) P11)) (or (or P8 ?v_4) ?v_118)) (or (or ?v_119 ?v_73) ?v_5)) (or (or ?v_80 ?v_120) ?v_133)) (or (or ?v_139 P13) ?v_15)) (or (or P13 ?v_7) ?v_24)) (or (or ?v_108 ?v_91) ?v_92)) (or (or ?v_144 ?v_121) ?v_75)) (or (or ?v_36 ?v_42) ?v_14)) (or (or P2 ?v_122) P17)) (or (or P18 ?v_123) ?v_62)) (or (or ?v_31 ?v_35) ?v_62)) (or (or ?v_71 ?v_40) ?v_76)) (or (or ?v_124 ?v_75) P11)) (or (or ?v_17 ?v_86) ?v_125)) (or (or ?v_55 ?v_129) ?v_57)) (or ?v_126 ?v_85)) (or (or ?v_89 ?v_33) P19)) (or (or ?v_118 ?v_65) ?v_74)) (or (or ?v_111 ?v_89) ?v_21)) (or (or P20 ?v_44) ?v_127)) (or (or ?v_57 ?v_24) ?v_72)) (or (or P6 ?v_85) ?v_7)) (or (or P9 ?v_96) P21)) (or (or ?v_73 ?v_114) ?v_110)) (or (or ?v_138 ?v_128) ?v_129)) (or (or ?v_35 P15) ?v_116)) (or (or ?v_116 ?v_66) ?v_100)) (or (or ?v_130 ?v_131) ?v_4)) (or (or ?v_5 ?v_91) ?v_56)) (or (or ?v_30 ?v_42) ?v_120)) (or (or ?v_92 ?v_84) ?v_23)) (or (or ?v_125 P29) ?v_88)) (or (or P3 ?v_128) ?v_56)) (or (or ?v_80 ?v_119) ?v_29)) (or (or P11 ?v_107) ?v_50)) (or (or ?v_3 ?v_121) ?v_132)) (or (or ?v_118 ?v_123) ?v_58)) (or (or ?v_81 ?v_133) ?v_79)) (or (or ?v_4 ?v_97) ?v_8)) (or (or ?v_121 ?v_84) ?v_92)) (or (or ?v_125 P25) ?v_87)) (or (or ?v_56 ?v_106) ?v_51)) (or (or P9 ?v_134) ?v_58)) (or (or ?v_81 ?v_16) ?v_33)) (or (or ?v_62 ?v_17) (not P22))) (or (or ?v_86 ?v_27) ?v_7)) (or (or P22 ?v_55) ?v_24)) (or (or P9 ?v_92) ?v_97)) (or (or ?v_9 ?v_78) ?v_146)) (or (or ?v_150 P1) ?v_66)) (or (or ?v_71 ?v_135) ?v_136)) (or (or ?v_119 ?v_1) ?v_48)) (or (or ?v_114 ?v_119) P9)) (or (or ?v_125 ?v_101) ?v_137)) (or (or ?v_106 P11) P18)) (or (or ?v_116 ?v_138) ?v_139)) (or (or ?v_137 ?v_69) P28)) (or (or ?v_133 ?v_47) P27)) (or (or P1 ?v_108) ?v_101)) (or (or ?v_140 ?v_56) ?v_5)) (or (or P13 ?v_52) ?v_141)) (or (or ?v_98 ?v_48) ?v_43)) (or (or ?v_121 ?v_118) ?v_86)) (or (or ?v_128 ?v_52) P7)) (or (or ?v_71 ?v_12) ?v_132)) (or (or ?v_73 ?v_149) ?v_142)) (or (or ?v_67 ?v_66) ?v_56)) (or (or ?v_65 ?v_15) ?v_143)) (or (or P23 ?v_47) ?v_0)) (or (or P15 ?v_129) ?v_72)) (or (or P17 ?v_107) ?v_97)) (or (or ?v_27 ?v_130) ?v_28)) (or (or ?v_108 P26) P20)) (or (or ?v_20 P23) ?v_152)) (or (or ?v_41 ?v_50) ?v_90)) (or (or ?v_124 ?v_144) ?v_57)) (or (or ?v_145 ?v_0) ?v_8)) (or (or ?v_44 ?v_69) ?v_108)) (or (or ?v_132 ?v_133) ?v_55)) (or (or ?v_55 ?v_12) ?v_71)) (or (or ?v_142 ?v_96) P19)) (or (or ?v_83 ?v_26) ?v_146)) (or (or ?v_7 P10) ?v_63)) (or (or P14 ?v_15) P15)) (or (or ?v_143 ?v_4) P29)) (or (or ?v_99 ?v_25) ?v_49)) (or (or ?v_85 ?v_108) ?v_19)) (or (or ?v_91 ?v_122) ?v_106)) (or (or ?v_87 ?v_13) ?v_127)) (or (or ?v_107 ?v_39) ?v_6)) (or (or ?v_133 ?v_15) ?v_102)) (or (or ?v_40 ?v_67) ?v_138)) (or (or ?v_137 P17) ?v_55)) (or (or P13 ?v_78) ?v_147)) (or (or ?v_139 P15) P11)) (or (or ?v_118 ?v_102) P23)) (or (or ?v_31 ?v_7) ?v_122)) (or (or ?v_145 ?v_43) ?v_109)) (or (or ?v_98 ?v_78) ?v_36)) (or (or ?v_118 ?v_50) ?v_68)) (or (or P7 ?v_40) ?v_120)) (or ?v_148 ?v_44)) (or (or ?v_117 ?v_155) P27)) (or (or ?v_39 ?v_38) P17)) (or (or P29 ?v_20) ?v_99)) (or (or ?v_53 ?v_46) ?v_141)) (or (or P6 ?v_45) ?v_113)) (or (or (not P25) ?v_31) P13)) (or (or ?v_110 ?v_125) ?v_102)) (or (or ?v_119 ?v_72) P29)) (or (or ?v_71 ?v_131) ?v_64)) (or (or ?v_102 ?v_20) ?v_60)) (or (or ?v_17 ?v_90) ?v_114)) (or (or P28 ?v_19) ?v_69)) (or (or ?v_149 ?v_150) ?v_135)) (or (or ?v_69 ?v_151) ?v_95)) (or (or ?v_63 ?v_2) ?v_133)) (or (or ?v_113 ?v_29) ?v_120)) (or (or ?v_34 ?v_109) ?v_54)) (or (or ?v_95 ?v_13) P29)) (or (or ?v_44 ?v_97) ?v_0)) (or (or ?v_47 ?v_47) ?v_39)) (or (or ?v_109 ?v_101) ?v_152)) (or (or P21 ?v_73) ?v_60)) (or (or ?v_81 ?v_138) ?v_12)) (or (or ?v_117 ?v_117) ?v_107)) (or (or P15 ?v_153) ?v_96)) (or ?v_154 ?v_20)) (or (or ?v_103 ?v_19) ?v_30)) (or (or ?v_24 ?v_128) ?v_87)) (or (or ?v_7 ?v_43) ?v_62)) (or (or ?v_152 ?v_65) ?v_75)) (or ?v_154 ?v_13)) (or (or ?v_70 ?v_73) ?v_137)) (or (or ?v_156 P16) ?v_23)) (or (or ?v_65 ?v_94) ?v_71)) (or (or ?v_4 ?v_68) ?v_149)) (or (or ?v_16 ?v_20) ?v_68)) (or (or ?v_15 ?v_20) ?v_123)) (or (or ?v_93 P29) P0)) (or (or ?v_103 ?v_53) ?v_15)) (or (or ?v_65 P3) ?v_20)) (or (or ?v_111 ?v_42) P27)) (or (or P4 P4) ?v_153)) (or (or ?v_8 P27) ?v_72)) (or (or P16 ?v_59) ?v_113)) (or (or ?v_25 ?v_60) ?v_77)) (or (or ?v_69 ?v_26) ?v_56)) (or (or ?v_51 ?v_155) ?v_3)) (or (or ?v_89 ?v_46) ?v_152)) (or (or ?v_101 ?v_72) ?v_93)) (or (or ?v_55 ?v_73) P7)) (or (or ?v_90 P13) ?v_9)) (or (or ?v_7 ?v_156) ?v_99)) (or (or ?v_95 ?v_6) ?v_98)) (or (or ?v_128 ?v_2) ?v_98)) (or (or P20 P18) P24)) (or (or ?v_47 ?v_56) ?v_95)) (or (or ?v_77 ?v_101) ?v_44)) (or (or ?v_94 ?v_60) ?v_101)) (or (or ?v_1 P27) ?v_47)) (or (or ?v_102 ?v_150) ?v_21)) (or (or ?v_74 ?v_103) ?v_52)) (or (or ?v_125 ?v_8) ?v_140)) (or (or ?v_19 ?v_95) ?v_152)) (or (or ?v_7 ?v_155) ?v_70)) (or (or ?v_5 ?v_17) P1)) (or (or P9 ?v_78) ?v_66)) (or (or ?v_125 ?v_68) ?v_47)) (or (or P17 P12) ?v_39)) (or (or ?v_53 ?v_48) ?v_36)) (or (or ?v_139 ?v_2) ?v_86)) (or (or ?v_117 ?v_31) P17)) (or (or ?v_39 ?v_125) ?v_153)) (or (or ?v_44 ?v_98) ?v_0)) (or (or ?v_3 P24) P19)) (or (or ?v_99 ?v_114) P24)) (or (or ?v_87 ?v_122) P17)) (or (or ?v_131 ?v_5) P5)) (or (or ?v_60 ?v_26) ?v_42)) (or (or P17 P29) ?v_33)) (or (or ?v_44 P29) ?v_67)) (or (or ?v_5 ?v_95) P12)) (or (or ?v_116 P4) P9)) (or (or ?v_75 P14) P25)) (or (or ?v_11 ?v_30) ?v_75)) (or (or ?v_32 ?v_146) ?v_48)) (or (or ?v_130 ?v_87) P17)) (or (or ?v_5 ?v_108) ?v_46)) (or (or ?v_130 P26) P12)) (or (or ?v_54 ?v_25) ?v_48)) (or (or ?v_73 ?v_153) P28)) (or (or ?v_52 P18) ?v_26)) (or (or ?v_149 ?v_24) ?v_139)) (or (or ?v_1 ?v_38) P28)) (or (or P29 ?v_60) ?v_4)) (or (or ?v_36 ?v_144) ?v_138)) (or (or ?v_17 ?v_53) ?v_44)) (or (or ?v_116 ?v_14) ?v_138)) (or (or ?v_61 ?v_24) ?v_0)) (or (or ?v_6 ?v_50) P4)) (or (or ?v_108 ?v_70) ?v_8)) (or (or ?v_51 P24) ?v_89)) (or (or ?v_96 P25) ?v_29)) (or (or ?v_46 ?v_103) ?v_81)) (or (or P9 ?v_71) ?v_94)) (or (or ?v_94 ?v_92) ?v_39)) (or (or ?v_130 ?v_41) ?v_153)) (or (or ?v_125 ?v_15) ?v_92)) (or (or ?v_156 ?v_21) ?v_7)) (or (or ?v_65 ?v_57) ?v_139)) (or (or ?v_57 P8) ?v_14)) (or (or ?v_15 ?v_16) ?v_52)) (or (or P23 ?v_27) ?v_66)) (or (or ?v_140 ?v_132) ?v_42)) (or ?v_157 ?v_21)) (or (or ?v_25 ?v_70) ?v_135)) (or (or P23 P10) ?v_141)))))))))))))))))))))))))
(check-sat)
(exit)
